Route #1: 1 40 36 33 14 19 8 17 21 39 9 3
Route #2: 1 13 7 5 22 35 27 10
Route #3: 1 29 4 12 44 42 28 15
Route #4: 1 41 18 26 24 43 16
Route #5: 1 11 23 31 38 2
Route #6: 1 37 20 30 32 6
Route #7: 1 25 45 34
cost 1281
